53
27 11 182
11 24 245
24 47 148
47 23 16
23 4 32
4 5 35
5 14 40
14 37 61
37 39 35
39 38 43
38 36 56
36 45 139
45 15 156
15 28 201
28 29 260
29 52 480
52 1 187
1 6 45
6 41 76
41 20 290
20 16 253
16 2 217
2 17 135
17 30 80
30 22 152
22 19 94
19 49 35
49 43 175
43 33 80
33 34 21
34 35 15
35 48 81
48 21 94
21 31 97
31 44 151
44 18 75
18 40 92
40 7 64
7 8 183
8 9 83
9 32 501
32 42 365
42 3 245
3 50 397
50 10 285
10 51 399
51 13 319
13 12 206
12 46 324
46 25 186
25 26 126
26 27 110

